40
1 0 10
2 0 5
2 1 8
3 0 3
3 1 10
3 2 3
4 0 4
4 1 10
4 2 5
4 3 3
5 0 6
5 1 10
5 2 1
5 3 8
5 4 10
6 0 2
6 1 8
6 2 7
6 3 1
6 4 9
6 5 7
7 0 9
7 1 5
7 2 6
7 3 8
7 4 1
7 5 9
7 6 10
8 0 8
8 1 10
8 2 8
8 3 8
8 4 8
8 5 1
8 6 3
8 7 6
9 0 7
9 1 5
9 2 5
9 3 4
9 4 6
9 5 2
9 6 9
9 7 8
9 8 4
10 0 8
10 1 7
10 2 5
10 3 1
10 4 3
10 5 6
10 6 2
10 7 4
10 8 7
10 9 7
11 0 4
11 1 3
11 2 9
11 3 4
11 4 5
11 5 9
11 6 7
11 7 1
11 8 9
11 9 1
11 10 7
12 0 1
12 1 9
12 2 1
12 3 6
12 4 5
12 5 3
12 6 1
12 7 4
12 8 1
12 9 5
12 10 6
12 11 6
13 0 10
13 1 7
13 2 10
13 3 5
13 4 6
13 5 7
13 6 2
13 7 3
13 8 5
13 9 6
13 10 3
13 11 8
13 12 8
14 0 5
14 1 1
14 2 8
14 3 2
14 4 6
14 5 4
14 6 2
14 7 1
14 8 5
14 9 10
14 10 6
14 11 3
14 12 2
14 13 2
15 0 2
15 1 3
15 2 10
15 3 4
15 4 1
15 5 7
15 6 9
15 7 5
15 8 6
15 9 5
15 10 5
15 11 8
15 12 4
15 13 2
15 14 6
16 0 6
16 1 9
16 2 3
16 3 7
16 4 2
16 5 1
16 6 7
16 7 2
16 8 10
16 9 1
16 10 8
16 11 6
16 12 6
16 13 10
16 14 4
16 15 7
17 0 9
17 1 9
17 2 2
17 3 1
17 4 4
17 5 3
17 6 6
17 7 3
17 8 6
17 9 2
17 10 2
17 11 8
17 12 10
17 13 8
17 14 8
17 15 2
17 16 4
18 0 8
18 1 4
18 2 8
18 3 5
18 4 8
18 5 1
18 6 10
18 7 6
18 8 3
18 9 2
18 10 9
18 11 6
18 12 2
18 13 7
18 14 10
18 15 3
18 16 10
18 17 3
19 0 7
19 1 10
19 2 3
19 3 8
19 4 4
19 5 1
19 6 7
19 7 8
19 8 3
19 9 9
19 10 6
19 11 3
19 12 8
19 13 3
19 14 5
19 15 4
19 16 5
19 17 3
19 18 10
20 0 1
20 1 8
20 2 9
20 3 7
20 4 1
20 5 2
20 6 4
20 7 10
20 8 4
20 9 1
20 10 5
20 11 10
20 12 8
20 13 5
20 14 9
20 15 10
20 16 1
20 17 8
20 18 10
20 19 2
21 0 4
21 1 1
21 2 4
21 3 6
21 4 9
21 5 6
21 6 3
21 7 5
21 8 4
21 9 8
21 10 6
21 11 10
21 12 7
21 13 9
21 14 4
21 15 6
21 16 6
21 17 2
21 18 10
21 19 6
21 20 10
22 0 5
22 1 2
22 2 1
22 3 6
22 4 1
22 5 5
22 6 2
22 7 4
22 8 4
22 9 7
22 10 7
22 11 5
22 12 7
22 13 5
22 14 5
22 15 9
22 16 3
22 17 4
22 18 5
22 19 4
22 20 10
22 21 4
23 0 10
23 1 1
23 2 2
23 3 7
23 4 8
23 5 5
23 6 7
23 7 7
23 8 3
23 9 5
23 10 9
23 11 5
23 12 9
23 13 3
23 14 9
23 15 1
23 16 1
23 17 9
23 18 10
23 19 7
23 20 4
23 21 1
23 22 6
24 0 5
24 1 6
24 2 10
24 3 3
24 4 1
24 5 10
24 6 5
24 7 10
24 8 9
24 9 4
24 10 4
24 11 5
24 12 9
24 13 10
24 14 2
24 15 10
24 16 4
24 17 6
24 18 9
24 19 9
24 20 3
24 21 7
24 22 5
24 23 6
25 0 2
25 1 1
25 2 2
25 3 1
25 4 6
25 5 8
25 6 6
25 7 2
25 8 2
25 9 3
25 10 7
25 11 5
25 12 1
25 13 2
25 14 1
25 15 5
25 16 8
25 17 3
25 18 1
25 19 6
25 20 3
25 21 2
25 22 3
25 23 8
25 24 8
26 0 4
26 1 9
26 2 7
26 3 2
26 4 6
26 5 9
26 6 1
26 7 1
26 8 3
26 9 4
26 10 5
26 11 3
26 12 5
26 13 4
26 14 8
26 15 7
26 16 8
26 17 10
26 18 7
26 19 3
26 20 3
26 21 1
26 22 9
26 23 3
26 24 2
26 25 7
27 0 3
27 1 9
27 2 1
27 3 2
27 4 5
27 5 5
27 6 6
27 7 2
27 8 5
27 9 1
27 10 9
27 11 2
27 12 7
27 13 8
27 14 3
27 15 4
27 16 9
27 17 9
27 18 10
27 19 7
27 20 1
27 21 3
27 22 8
27 23 8
27 24 7
27 25 8
27 26 6
28 0 9
28 1 8
28 2 8
28 3 3
28 4 10
28 5 8
28 6 4
28 7 9
28 8 9
28 9 3
28 10 1
28 11 5
28 12 9
28 13 3
28 14 5
28 15 1
28 16 1
28 17 3
28 18 5
28 19 6
28 20 8
28 21 8
28 22 4
28 23 4
28 24 7
28 25 2
28 26 9
28 27 10
29 0 1
29 1 5
29 2 5
29 3 7
29 4 8
29 5 8
29 6 3
29 7 10
29 8 6
29 9 7
29 10 3
29 11 5
29 12 3
29 13 3
29 14 8
29 15 6
29 16 5
29 17 10
29 18 9
29 19 8
29 20 2
29 21 8
29 22 4
29 23 6
29 24 5
29 25 7
29 26 2
29 27 7
29 28 1
30 0 6
30 1 4
30 2 10
30 3 1
30 4 2
30 5 3
30 6 5
30 7 6
30 8 1
30 9 10
30 10 5
30 11 7
30 12 2
30 13 4
30 14 10
30 15 5
30 16 9
30 17 5
30 18 3
30 19 6
30 20 10
30 21 6
30 22 4
30 23 4
30 24 7
30 25 10
30 26 10
30 27 3
30 28 3
30 29 8
31 0 9
31 1 7
31 2 5
31 3 2
31 4 8
31 5 4
31 6 8
31 7 7
31 8 7
31 9 7
31 10 10
31 11 8
31 12 3
31 13 9
31 14 4
31 15 5
31 16 5
31 17 8
31 18 7
31 19 4
31 20 4
31 21 10
31 22 2
31 23 1
31 24 6
31 25 10
31 26 7
31 27 3
31 28 7
31 29 7
31 30 6
32 0 6
32 1 2
32 2 1
32 3 2
32 4 8
32 5 5
32 6 9
32 7 5
32 8 4
32 9 3
32 10 2
32 11 7
32 12 4
32 13 2
32 14 6
32 15 10
32 16 8
32 17 3
32 18 7
32 19 5
32 20 7
32 21 10
32 22 9
32 23 2
32 24 2
32 25 3
32 26 8
32 27 7
32 28 9
32 29 10
32 30 2
32 31 3
33 0 4
33 1 2
33 2 3
33 3 8
33 4 3
33 5 9
33 6 3
33 7 5
33 8 8
33 9 8
33 10 10
33 11 2
33 12 5
33 13 7
33 14 8
33 15 2
33 16 1
33 17 2
33 18 5
33 19 10
33 20 1
33 21 10
33 22 10
33 23 4
33 24 1
33 25 10
33 26 3
33 27 10
33 28 1
33 29 10
33 30 4
33 31 4
33 32 10
34 0 9
34 1 6
34 2 5
34 3 7
34 4 2
34 5 1
34 6 10
34 7 2
34 8 1
34 9 3
34 10 5
34 11 9
34 12 8
34 13 8
34 14 1
34 15 9
34 16 7
34 17 9
34 18 5
34 19 7
34 20 8
34 21 5
34 22 6
34 23 6
34 24 6
34 25 8
34 26 5
34 27 3
34 28 3
34 29 4
34 30 10
34 31 2
34 32 10
34 33 8
35 0 2
35 1 4
35 2 6
35 3 9
35 4 10
35 5 6
35 6 9
35 7 9
35 8 5
35 9 5
35 10 4
35 11 8
35 12 2
35 13 3
35 14 7
35 15 6
35 16 4
35 17 3
35 18 7
35 19 4
35 20 10
35 21 1
35 22 2
35 23 9
35 24 7
35 25 7
35 26 6
35 27 6
35 28 1
35 29 9
35 30 1
35 31 2
35 32 7
35 33 2
35 34 2
36 0 2
36 1 1
36 2 2
36 3 7
36 4 7
36 5 6
36 6 7
36 7 6
36 8 3
36 9 7
36 10 7
36 11 3
36 12 3
36 13 8
36 14 7
36 15 2
36 16 10
36 17 1
36 18 3
36 19 1
36 20 8
36 21 9
36 22 1
36 23 7
36 24 2
36 25 7
36 26 3
36 27 6
36 28 5
36 29 1
36 30 8
36 31 1
36 32 10
36 33 10
36 34 2
36 35 9
37 0 3
37 1 4
37 2 4
37 3 3
37 4 3
37 5 5
37 6 4
37 7 5
37 8 9
37 9 3
37 10 3
37 11 8
37 12 2
37 13 10
37 14 5
37 15 6
37 16 7
37 17 5
37 18 3
37 19 5
37 20 8
37 21 1
37 22 3
37 23 3
37 24 5
37 25 7
37 26 4
37 27 10
37 28 4
37 29 3
37 30 7
37 31 5
37 32 7
37 33 4
37 34 5
37 35 10
37 36 6
38 0 1
38 1 3
38 2 7
38 3 5
38 4 8
38 5 1
38 6 4
38 7 6
38 8 1
38 9 7
38 10 5
38 11 7
38 12 1
38 13 10
38 14 4
38 15 4
38 16 2
38 17 10
38 18 1
38 19 1
38 20 2
38 21 6
38 22 8
38 23 6
38 24 10
38 25 9
38 26 2
38 27 1
38 28 5
38 29 4
38 30 5
38 31 3
38 32 3
38 33 3
38 34 4
38 35 8
38 36 7
38 37 8
39 0 5
39 1 10
39 2 1
39 3 7
39 4 5
39 5 9
39 6 5
39 7 3
39 8 3
39 9 8
39 10 4
39 11 8
39 12 2
39 13 7
39 14 1
39 15 5
39 16 8
39 17 1
39 18 1
39 19 8
39 20 8
39 21 10
39 22 7
39 23 8
39 24 4
39 25 9
39 26 9
39 27 4
39 28 8
39 29 10
39 30 2
39 31 3
39 32 2
39 33 8
39 34 1
39 35 3
39 36 3
39 37 10
39 38 1
